NAME : instance_14_500
TYPE : TSP
DIMENSION : 14
EDGE_WEIGHT_TYPE : EUC_2D
LOWER : 0
UPPER : 100
NODE_COORD_SECTION
1 4.153544479 55.6352070067
2 35.5348483426 1.5560820466
3 53.4129685257 24.1783209378
4 15.8294781344 98.8694740459
5 81.4947236096 87.2280632844
6 47.7253159275 89.673019154
7 66.9847228797 96.2008843664
8 74.8789745616 43.5709725367
9 20.8087485516 7.7739931643
10 48.4706644667 96.7695663217
11 55.5220748065 48.377357237
12 90.6998697435 2.3826058023
13 58.8785639033 39.618625422
14 4.2388958158 96.1351618404
EOF
